100
120
96
94
92
92
92
90
89
86
85
85
85
84
83
83
83
83
82
81
80
79
78
76
75
74
73
73
72
72
70
69
69
69
69
68
67
66
66
65
64
62
62
59
55
54
53
51
50
50
50
49
49
48
48
47
47
46
46
45
45
44
42
42
42
40
39
39
36
36
34
34
33
32
30
30
27
26
26
26
26
26
25
25
25
25
25
24
24
22
22
21
21
20
17
17
17
17
14
14
13
13
